
Log started (V11.0.0) Tue Apr 15 18:40:08 2008

Tried aggregator 1 time.
Reduced MIP has 110 rows, 1001 columns, and 2010 nonzeros.
Presolve time =   -0.00 sec.
Clique table members: 100.
MIP emphasis: balance optimality and feasibility.
MIP search method: dynamic search.
Parallel mode: none, using 1 thread.
Root relaxation solution time =    0.02 sec.

        Nodes                                         Cuts/
   Node  Left     Objective  IInf  Best Integer     Best Node    ItCnt     Gap

*     0+    0                         5862.0000      180.1828      215   96.93%
*     0+    0                          192.0000      180.1828      215    6.15%
      0     0      181.0000    21      192.0000      Fract: 8      228    5.73%
      0     0      181.0000    25      192.0000     Covers: 1      244    5.73%
      0     0      181.0000    26      192.0000     Covers: 1      262    5.73%
*     0+    0                          191.0000      181.0000      262    5.24%
*     0+    0                          190.0000      181.0000      262    4.74%
      0     2      181.0000    26      190.0000      181.0000      262    4.74%
    100    78      183.8299    18      190.0000      181.0000     4195    4.74%
*   200+  111                          188.0000      181.0000     6215    3.72%
    200   112      181.1860    21      188.0000      181.0000     6215    3.72%
    300   194      183.0000    16      188.0000      181.0000     7297    3.72%
    400   269      185.0000    15      188.0000      181.0000     8541    3.72%
*   470+  278                          187.0000      181.0000     9610    3.21%
    500   310      182.0000    16      187.0000      181.0000    10193    3.21%
    600   368      184.0000    25      187.0000      182.0000    14221    2.67%
*   681+  247                          185.0000      182.0000    17428    1.62%
    700   236    infeasible            185.0000      182.0000    18274    1.62%
    800   238      183.0000    36      185.0000      182.0000    24041    1.62%
    900   242      183.0000    23      185.0000      182.0000    29211    1.62%
   1000   268      184.0000    52      185.0000      182.0000    34971    1.62%
Elapsed time =   4.27 sec. (tree size =  0.11 MB, solutions = 7)
   1100   348      183.0000    12      185.0000      182.0000    43377    1.62%
   1200   429      183.0000    16      185.0000      182.0000    47812    1.62%
   1300   519      183.1074    40      185.0000      182.0000    52865    1.62%
   1400   597      184.0000    31      185.0000      182.0000    59592    1.62%
*  1481+  433                          184.0000      182.0000    65265    1.09%
   1500   446      183.0000    27      184.0000      182.0000    67395    1.09%
   1600   520      183.0000    26      184.0000      182.0000    74180    1.09%
   1700   599      182.0000    48      184.0000      182.0000    82280    1.09%
   1800   658      183.0000    20      184.0000      182.0000    87964    1.09%
   1900   729      182.0531    50      184.0000      182.0000    95482    1.09%
   2000   795      183.0000     8      184.0000      182.0000   102429    1.09%
Elapsed time =   9.91 sec. (tree size =  0.33 MB, solutions = 8)
   2100   868      183.0000    54      184.0000      182.0000   110420    1.09%
   2200   933    infeasible            184.0000      182.0000   119685    1.09%
   2300   998      183.0000    59      184.0000      182.0000   126719    1.09%
   2400  1058      183.0000    33      184.0000      182.0000   138075    1.09%
   2500  1125      183.0000    30      184.0000      182.0000   149993    1.09%
*  2557    20      integral     0      183.0000      182.0000   153768    0.55%
   2600     5    infeasible            183.0000      182.0000   165043    0.55%

Cover cuts applied:  311
Mixed integer rounding cuts applied:  14
Zero-half cuts applied:  1
Gomory fractional cuts applied:  4

Solution pool: 9 solutions saved.

MIP - Integer optimal solution:  Objective = 1.8300000000e+002
Solution time =   16.44 sec.  Iterations = 166675  Nodes = 2606


Incumbent solution
Variable Name           Solution Value
Cmax                        183.000000
X_1_9                         1.000000
X_2_2                         1.000000
X_3_3                         1.000000
X_4_2                         1.000000
X_5_10                        1.000000
X_6_3                         1.000000
X_7_6                         1.000000
X_8_9                         1.000000
X_9_5                         1.000000
X_10_2                        1.000000
X_11_6                        1.000000
X_12_2                        1.000000
X_13_3                        1.000000
X_14_3                        1.000000
X_15_8                        1.000000
X_16_4                        1.000000
X_17_8                        1.000000
X_18_4                        1.000000
X_19_3                        1.000000
X_20_10                       1.000000
X_21_10                       1.000000
X_22_4                        1.000000
X_23_4                        1.000000
X_24_6                        1.000000
X_25_2                        1.000000
X_26_5                        1.000000
X_27_4                        1.000000
X_28_7                        1.000000
X_29_3                        1.000000
X_30_4                        1.000000
X_31_7                        1.000000
X_32_5                        1.000000
X_33_7                        1.000000
X_34_10                       1.000000
X_35_6                        1.000000
X_36_5                        1.000000
X_37_10                       1.000000
X_38_4                        1.000000
X_39_1                        1.000000
X_40_1                        1.000000
X_41_10                       1.000000
X_42_1                        1.000000
X_43_6                        1.000000
X_44_4                        1.000000
X_45_8                        1.000000
X_46_3                        1.000000
X_47_9                        1.000000
X_48_8                        1.000000
X_49_2                        1.000000
X_50_9                        1.000000
X_51_1                        1.000000
X_52_10                       1.000000
X_53_9                        1.000000
X_54_7                        1.000000
X_55_10                       1.000000
X_56_10                       1.000000
X_57_5                        1.000000
X_58_3                        1.000000
X_59_1                        1.000000
X_60_3                        1.000000
X_61_4                        1.000000
X_62_7                        1.000000
X_63_7                        1.000000
X_64_4                        1.000000
X_65_1                        1.000000
X_66_4                        1.000000
X_67_1                        1.000000
X_68_7                        1.000000
X_69_7                        1.000000
X_70_2                        1.000000
X_71_8                        1.000000
X_72_2                        1.000000
X_73_5                        1.000000
X_74_7                        1.000000
X_75_3                        1.000000
X_76_3                        1.000000
X_77_6                        1.000000
X_78_6                        1.000000
X_79_5                        1.000000
X_80_8                        1.000000
X_81_6                        1.000000
X_82_9                        1.000000
X_83_5                        1.000000
X_84_9                        1.000000
X_85_2                        1.000000
X_86_6                        1.000000
X_87_1                        1.000000
X_88_6                        1.000000
X_89_7                        1.000000
X_90_8                        1.000000
X_91_9                        1.000000
X_92_1                        1.000000
X_93_8                        1.000000
X_94_5                        1.000000
X_95_9                        1.000000
X_96_5                        1.000000
X_97_4                        1.000000
X_98_8                        1.000000
X_99_5                        1.000000
X_100_10                      1.000000
All other variables in the range 1-1001 are 0.
